param n := 60;
param c := 1000;
param : V : p w :=
   0	  34	 351
   1	  61	 258
   2	  67	 391
   3	  86	 359
   4	  74	 259
   5	  65	 382
   6	  57	 376
   7	  73	 308
   8	  25	 316
   9	  79	 445
  10	  91	 275
  11	  32	 280
  12	  91	 426
  13	  83	 276
  14	  52	 298
  15	  33	 468
  16	   7	 259
  17	  74	 273
  18	  52	 453
  19	  69	 258
  20	   3	 289
  21	  56	 443
  22	  64	 253
  23	  29	 304
  24	  12	 380
  25	  42	 261
  26	  69	 359
  27	  63	 377
  28	  59	 304
  29	  23	 319
  30	  64	 483
  31	  37	 254
  32	  54	 263
  33	  34	 451
  34	  13	 261
  35	  92	 288
  36	  23	 373
  37	  57	 263
  38	  92	 364
  39	  28	 417
  40	  38	 276
  41	  97	 307
  42	  77	 363
  43	   2	 294
  44	  52	 343
  45	  55	 442
  46	  37	 254
  47	  34	 304
  48	  34	 412
  49	  20	 256
  50	 100	 332
  51	  65	 369
  52	  66	 262
  53	  57	 369
  54	  96	 429
  55	   6	 252
  56	  96	 319
  57	   9	 397
  58	  88	 266
  59	  27	 337
;

set E :=
   0	  19
   0	  23
   0	  38
   0	  48
   0	  51
   1	  14
   1	  15
   1	  18
   1	  38
   2	   3
   2	   5
   2	  11
   2	  13
   2	  36
   2	  38
   2	  39
   2	  51
   3	   4
   3	  23
   3	  25
   3	  28
   3	  33
   3	  38
   3	  39
   3	  40
   3	  42
   3	  50
   3	  52
   3	  57
   4	  26
   4	  28
   4	  31
   4	  44
   5	   9
   5	  13
   5	  25
   5	  26
   5	  32
   5	  37
   5	  39
   5	  50
   5	  53
   6	   8
   6	  15
   6	  18
   6	  36
   6	  39
   6	  51
   6	  53
   6	  57
   7	  13
   7	  16
   7	  34
   7	  51
   8	  20
   8	  28
   8	  31
   8	  34
   8	  48
   8	  54
   8	  56
   9	  16
   9	  43
   9	  59
  10	  15
  10	  18
  10	  22
  10	  25
  10	  29
  10	  51
  10	  59
  11	  16
  11	  22
  11	  38
  11	  53
  12	  25
  12	  45
  12	  49
  13	  36
  13	  44
  14	  20
  14	  24
  14	  31
  14	  35
  14	  44
  14	  49
  14	  53
  15	  22
  16	  32
  16	  39
  16	  46
  16	  50
  17	  38
  17	  49
  17	  50
  18	  26
  18	  33
  18	  46
  18	  54
  18	  59
  19	  30
  19	  50
  19	  53
  19	  58
  20	  23
  20	  32
  20	  45
  20	  46
  20	  47
  20	  49
  21	  27
  21	  30
  21	  46
  22	  24
  22	  27
  22	  49
  23	  45
  23	  57
  24	  25
  24	  47
  24	  49
  24	  50
  25	  26
  25	  31
  25	  47
  26	  37
  26	  43
  27	  35
  27	  44
  27	  47
  27	  51
  27	  56
  28	  33
  28	  35
  28	  51
  28	  58
  29	  41
  29	  57
  30	  41
  30	  48
  31	  48
  32	  34
  32	  46
  32	  47
  32	  51
  33	  42
  33	  59
  34	  58
  36	  55
  37	  50
  37	  53
  38	  48
  38	  49
  39	  43
  39	  53
  40	  41
  40	  47
  40	  48
  40	  50
  40	  57
  41	  52
  42	  45
  42	  54
  42	  57
  43	  44
  43	  52
  44	  49
  44	  52
  45	  56
  46	  53
  47	  49
  47	  50
  47	  54
  48	  49
  48	  58
  49	  57
  50	  58
  53	  55
  55	  57
  55	  58
;
